p edge 100 468
e 1 15
e 1 22
e 1 34
e 1 52
e 1 75
e 1 84
e 1 89
e 1 94
e 1 98
e 2 10
e 2 26
e 2 28
e 2 63
e 2 79
e 2 86
e 2 87
e 2 90
e 2 92
e 3 14
e 3 31
e 3 40
e 3 47
e 3 61
e 3 67
e 3 70
e 3 74
e 4 10
e 4 14
e 4 20
e 4 29
e 4 46
e 4 73
e 4 75
e 4 90
e 5 11
e 5 13
e 5 24
e 5 26
e 5 47
e 5 50
e 5 84
e 5 96
e 6 13
e 6 16
e 6 29
e 6 41
e 6 44
e 6 46
e 6 58
e 6 71
e 6 78
e 6 79
e 6 80
e 7 15
e 7 16
e 7 21
e 7 24
e 7 29
e 7 36
e 7 41
e 7 58
e 7 64
e 7 73
e 7 95
e 7 97
e 8 64
e 8 85
e 8 92
e 8 94
e 8 96
e 9 10
e 9 17
e 9 33
e 9 54
e 9 59
e 9 66
e 9 73
e 9 76
e 9 80
e 9 100
e 10 63
e 10 74
e 10 78
e 11 13
e 11 19
e 11 33
e 11 41
e 11 45
e 11 63
e 11 86
e 11 90
e 11 98
e 12 28
e 12 29
e 12 39
e 12 51
e 12 64
e 12 80
e 12 82
e 13 16
e 13 39
e 13 45
e 13 60
e 13 77
e 13 83
e 13 85
e 14 25
e 14 29
e 14 39
e 14 55
e 14 56
e 14 62
e 14 63
e 14 95
e 14 98
e 14 99
e 15 46
e 15 63
e 15 96
e 16 35
e 16 50
e 16 55
e 16 58
e 16 59
e 16 60
e 16 77
e 16 90
e 17 19
e 17 28
e 17 36
e 17 44
e 17 62
e 17 63
e 17 92
e 17 98
e 18 20
e 18 23
e 18 27
e 18 34
e 18 47
e 18 66
e 18 70
e 18 74
e 18 86
e 19 24
e 19 26
e 19 36
e 19 71
e 19 83
e 19 84
e 20 27
e 20 30
e 20 61
e 20 70
e 20 72
e 20 77
e 20 81
e 20 83
e 20 84
e 20 87
e 21 24
e 21 51
e 21 75
e 21 77
e 21 82
e 22 26
e 22 34
e 22 37
e 22 38
e 22 42
e 22 43
e 22 49
e 22 51
e 22 54
e 22 66
e 22 80
e 22 100
e 23 33
e 23 46
e 23 55
e 23 67
e 23 70
e 23 92
e 23 93
e 24 48
e 24 52
e 24 58
e 24 80
e 25 26
e 25 47
e 25 54
e 25 65
e 25 71
e 25 79
e 25 84
e 25 95
e 26 30
e 26 69
e 26 78
e 26 95
e 27 28
e 27 44
e 27 46
e 27 49
e 27 66
e 27 68
e 27 82
e 28 33
e 28 42
e 28 43
e 28 45
e 28 47
e 28 48
e 28 57
e 28 64
e 28 75
e 28 91
e 28 93
e 29 58
e 29 60
e 29 61
e 29 63
e 29 71
e 29 83
e 29 92
e 30 36
e 30 45
e 30 49
e 30 59
e 30 60
e 30 62
e 30 75
e 30 83
e 31 57
e 31 70
e 31 73
e 31 75
e 32 33
e 32 37
e 32 48
e 32 54
e 32 59
e 32 77
e 33 57
e 33 62
e 33 67
e 33 71
e 33 82
e 33 93
e 34 43
e 34 47
e 34 61
e 34 66
e 34 75
e 34 88
e 34 90
e 34 95
e 35 44
e 35 56
e 35 64
e 35 73
e 35 87
e 35 92
e 35 96
e 36 53
e 36 54
e 36 71
e 36 94
e 36 97
e 37 44
e 37 55
e 37 76
e 37 80
e 37 83
e 37 95
e 38 40
e 38 49
e 38 50
e 38 55
e 38 61
e 38 76
e 38 86
e 38 88
e 38 92
e 39 65
e 39 76
e 39 85
e 39 86
e 39 89
e 39 90
e 39 99
e 40 50
e 40 62
e 40 78
e 40 100
e 41 73
e 41 74
e 42 57
e 42 77
e 42 82
e 42 99
e 43 63
e 43 85
e 43 90
e 44 45
e 44 46
e 44 51
e 44 65
e 44 66
e 44 77
e 44 84
e 45 47
e 45 48
e 45 49
e 45 50
e 45 51
e 45 60
e 45 70
e 45 74
e 45 90
e 45 92
e 46 61
e 46 62
e 46 70
e 46 73
e 46 84
e 46 93
e 46 94
e 46 98
e 47 51
e 47 52
e 47 54
e 47 83
e 47 85
e 47 90
e 47 92
e 47 95
e 48 55
e 48 81
e 48 85
e 49 74
e 49 77
e 49 87
e 49 96
e 49 99
e 50 58
e 50 77
e 50 90
e 50 98
e 51 56
e 51 81
e 51 87
e 52 65
e 52 94
e 52 95
e 53 66
e 53 67
e 53 69
e 53 73
e 53 89
e 53 90
e 54 58
e 54 59
e 54 66
e 54 68
e 54 89
e 54 92
e 54 96
e 54 100
e 55 63
e 55 83
e 55 97
e 56 57
e 56 72
e 57 79
e 57 82
e 57 84
e 57 100
e 58 59
e 58 77
e 58 93
e 59 70
e 59 84
e 60 66
e 60 72
e 60 86
e 60 89
e 60 90
e 61 62
e 61 69
e 61 73
e 61 79
e 62 65
e 62 72
e 62 77
e 62 79
e 62 98
e 64 95
e 64 98
e 65 74
e 65 77
e 65 85
e 65 93
e 65 100
e 66 68
e 66 83
e 66 86
e 66 100
e 67 83
e 67 92
e 67 95
e 68 75
e 68 86
e 70 78
e 70 80
e 70 89
e 70 95
e 70 99
e 71 96
e 71 98
e 72 73
e 72 86
e 73 79
e 73 85
e 73 86
e 73 88
e 73 91
e 73 93
e 74 84
e 74 94
e 75 77
e 75 95
e 75 96
e 76 78
e 76 90
e 76 96
e 77 79
e 77 81
e 77 95
e 78 84
e 78 91
e 78 97
e 79 86
e 79 97
e 79 98
e 80 93
e 80 99
e 82 83
e 82 96
e 82 100
e 83 92
e 84 89
e 84 92
e 85 90
e 85 91
e 86 94
e 86 95
e 87 88
e 87 91
e 87 97
e 90 95
e 92 95
e 92 97
e 92 100
e 93 96
e 94 95
e 94 96
e 95 98
